(set-info :smt-lib-version 2.6)
(set-logic UF)
(set-info :source |Benchmarks from the paper: "Extending Sledgehammer with SMT Solvers" by Jasmin Blanchette, Sascha Bohme, and Lawrence C. Paulson, CADE 2011.  Translated to SMT2 by Andrew Reynolds and Morgan Deters.|)
(set-info :category "industrial")
(set-info :status unknown)
(declare-sort S1 0)
(declare-sort S2 0)
(declare-sort S3 0)
(declare-sort S4 0)
(declare-sort S5 0)
(declare-sort S6 0)
(declare-sort S7 0)
(declare-sort S8 0)
(declare-sort S9 0)
(declare-sort S10 0)
(declare-sort S11 0)
(declare-sort S12 0)
(declare-sort S13 0)
(declare-sort S14 0)
(declare-fun f1 () S1)
(declare-fun f2 () S1)
(declare-fun f3 (S2 S3) S4)
(declare-fun f4 (S5 S4) S2)
(declare-fun f5 () S5)
(declare-fun f6 (S6 S4) S4)
(declare-fun f7 (S7 S4) S6)
(declare-fun f8 () S7)
(declare-fun f9 () S4)
(declare-fun f10 () S2)
(declare-fun f11 () S3)
(declare-fun f12 () S3)
(declare-fun f13 (S8 S3) S1)
(declare-fun f14 (S3) S8)
(declare-fun f15 (S9 S3) S10)
(declare-fun f16 (S11 S10) S9)
(declare-fun f17 () S11)
(declare-fun f18 () S10)
(declare-fun f19 (S12 S3) S3)
(declare-fun f20 (S13 S3) S12)
(declare-fun f21 () S13)
(declare-fun f22 () S3)
(declare-fun f23 () S3)
(declare-fun f24 () S4)
(declare-fun f25 (S10 S10) S1)
(declare-fun f26 () S10)
(declare-fun f27 (S14 S3) S8)
(declare-fun f28 () S13)
(declare-fun f29 (S10 S10) S1)
(declare-fun f30 (S3 S3) S1)
(assert (not (= f1 f2)))
(assert (not (not (= (f3 (f4 f5 (f6 (f7 f8 f9) (f3 f10 f11))) f12) f9))))
(assert (= (f13 (f14 f12) f11) f1))
(assert (forall ((?v0 S3)) (= (f3 (f4 f5 (f3 f10 ?v0)) ?v0) f9)))
(assert (forall ((?v0 S4) (?v1 S3)) (let ((?v_0 (f7 f8 f9))) (= (f6 ?v_0 (f3 (f4 f5 ?v0) ?v1)) (f3 (f4 f5 (f6 ?v_0 ?v0)) ?v1)))))
(assert (forall ((?v0 S4) (?v1 S4) (?v2 S3)) (= (f3 (f4 f5 (f6 (f7 f8 ?v0) ?v1)) ?v2) (f6 (f7 f8 (f3 (f4 f5 ?v0) ?v2)) (f3 (f4 f5 ?v1) ?v2)))))
(assert (forall ((?v0 S4)) (= (f6 (f7 f8 ?v0) f9) ?v0)))
(assert (forall ((?v0 S3)) (= (f3 (f4 f5 f9) ?v0) f9)))
(assert (forall ((?v0 S3)) (= (f15 (f16 f17 f18) ?v0) f18)))
(assert (forall ((?v0 S3)) (= (f19 (f20 f21 f22) ?v0) f22)))
(assert (= (f13 (f14 f23) f12) f1))
(assert (forall ((?v0 S4)) (= (= f9 ?v0) (= ?v0 f9))))
(assert (forall ((?v0 S10)) (= (= f18 ?v0) (= ?v0 f18))))
(assert (forall ((?v0 S3)) (= (= f22 ?v0) (= ?v0 f22))))
(assert (forall ((?v0 S3)) (not (= (f3 f10 ?v0) f24))))
(assert (forall ((?v0 S4)) (= (f3 (f4 f5 ?v0) f23) f9)))
(assert (forall ((?v0 S10)) (= (f15 (f16 f17 ?v0) f23) f18)))
(assert (forall ((?v0 S3)) (= (f19 (f20 f21 ?v0) f23) f22)))
(assert (forall ((?v0 S4)) (= (f3 (f4 f5 ?v0) f23) f9)))
(assert (forall ((?v0 S10)) (= (f15 (f16 f17 ?v0) f23) f18)))
(assert (forall ((?v0 S3)) (= (f19 (f20 f21 ?v0) f23) f22)))
(assert (forall ((?v0 S4) (?v1 S4) (?v2 S3)) (=> (not (= ?v0 f24)) (= (f3 (f4 f5 (f6 (f7 f8 ?v1) ?v0)) ?v2) (f6 (f7 f8 (f3 (f4 f5 ?v1) ?v2)) (f3 (f4 f5 ?v0) ?v2))))))
(assert (forall ((?v0 S4)) (= (f6 (f7 f8 ?v0) ?v0) (ite (= ?v0 f24) f24 f9))))
(assert (forall ((?v0 S4)) (=> (not (= ?v0 f24)) (= (f6 (f7 f8 ?v0) ?v0) f9))))
(assert (not (= (f25 f18 f26) f1)))
(assert (not (= (f13 (f14 f22) f23) f1)))
(assert (= (f25 f26 f18) f1))
(assert (= (f13 (f14 f23) f22) f1))
(assert (forall ((?v0 S10)) (= (= f26 ?v0) (= ?v0 f26))))
(assert (forall ((?v0 S3)) (= (= f23 ?v0) (= ?v0 f23))))
(assert (forall ((?v0 S4)) (= (= f24 ?v0) (= ?v0 f24))))
(assert (forall ((?v0 S3) (?v1 S3)) (let ((?v_0 (f14 f23))) (= (= (f13 ?v_0 (f19 (f20 f21 ?v0) ?v1)) f1) (or (= (f13 ?v_0 ?v0) f1) (= ?v1 f23))))))
(assert (forall ((?v0 S10) (?v1 S3)) (= (= (f15 (f16 f17 ?v0) ?v1) f26) (and (= ?v0 f26) (not (= ?v1 f23))))))
(assert (forall ((?v0 S3) (?v1 S3)) (= (= (f19 (f20 f21 ?v0) ?v1) f23) (and (= ?v0 f23) (not (= ?v1 f23))))))
(assert (forall ((?v0 S4) (?v1 S3)) (= (= (f3 (f4 f5 ?v0) ?v1) f24) (and (= ?v0 f24) (not (= ?v1 f23))))))
(assert (forall ((?v0 S10) (?v1 S10)) (=> (not (= ?v0 ?v1)) (=> (=> (= (f25 ?v0 ?v1) f1) false) (=> (=> (= (f25 ?v1 ?v0) f1) false) false)))))
(assert (forall ((?v0 S10) (?v1 S3)) (=> (= (f25 f26 ?v0) f1) (= (f25 f26 (f15 (f16 f17 ?v0) ?v1)) f1))))
(assert (forall ((?v0 S3) (?v1 S3)) (let ((?v_0 (f14 f23))) (=> (= (f13 ?v_0 ?v0) f1) (= (f13 ?v_0 (f19 (f20 f21 ?v0) ?v1)) f1)))))
(assert (forall ((?v0 S3) (?v1 S3) (?v2 S3)) (let ((?v_0 (f20 f21 ?v0))) (=> (= (f13 (f14 f23) ?v0) f1) (=> (= (f13 (f14 (f19 ?v_0 ?v1)) (f19 ?v_0 ?v2)) f1) (= (f13 (f14 ?v1) ?v2) f1))))))
(assert (forall ((?v0 S3) (?v1 S3) (?v2 S10)) (let ((?v_0 (f16 f17 ?v2))) (=> (= (f13 (f14 ?v0) ?v1) f1) (=> (= (f25 f26 ?v2) f1) (=> (= (f25 ?v2 f18) f1) (= (f25 (f15 ?v_0 ?v1) (f15 ?v_0 ?v0)) f1)))))))
(assert (forall ((?v0 S3) (?v1 S3) (?v2 S3)) (let ((?v_0 (f20 f21 ?v2))) (=> (= (f13 (f14 ?v0) ?v1) f1) (=> (= (f13 (f14 f23) ?v2) f1) (=> (= (f13 (f14 ?v2) f22) f1) (= (f13 (f14 (f19 ?v_0 ?v1)) (f19 ?v_0 ?v0)) f1)))))))
(assert (forall ((?v0 S10) (?v1 S3)) (=> (= (f25 f18 ?v0) f1) (=> (= (f13 (f14 f23) ?v1) f1) (= (f25 f18 (f15 (f16 f17 ?v0) ?v1)) f1)))))
(assert (forall ((?v0 S3) (?v1 S3)) (let ((?v_0 (f14 f22))) (=> (= (f13 ?v_0 ?v0) f1) (=> (= (f13 (f14 f23) ?v1) f1) (= (f13 ?v_0 (f19 (f20 f21 ?v0) ?v1)) f1))))))
(assert (not (= f24 f9)))
(assert (not (= f26 f18)))
(assert (not (= f23 f22)))
(assert (not (= f9 f24)))
(assert (not (= f18 f26)))
(assert (not (= f22 f23)))
(assert (forall ((?v0 S10)) (= (f15 (f16 f17 ?v0) f22) ?v0)))
(assert (forall ((?v0 S4)) (= (f3 (f4 f5 ?v0) f22) ?v0)))
(assert (forall ((?v0 S3)) (= (f19 (f20 f21 ?v0) f22) ?v0)))
(assert (forall ((?v0 S10)) (= (f15 (f16 f17 ?v0) f22) ?v0)))
(assert (forall ((?v0 S4)) (= (f3 (f4 f5 ?v0) f22) ?v0)))
(assert (forall ((?v0 S3)) (= (f19 (f20 f21 ?v0) f22) ?v0)))
(assert (forall ((?v0 S10) (?v1 S3)) (=> (not (= ?v0 f26)) (not (= (f15 (f16 f17 ?v0) ?v1) f26)))))
(assert (forall ((?v0 S4) (?v1 S3)) (=> (not (= ?v0 f24)) (not (= (f3 (f4 f5 ?v0) ?v1) f24)))))
(assert (forall ((?v0 S4)) (= (f6 (f7 f8 ?v0) f24) f24)))
(assert (forall ((?v0 S4)) (= (f6 (f7 f8 f24) ?v0) f24)))
(assert (forall ((?v0 S3) (?v1 S3) (?v2 S10)) (let ((?v_0 (f16 f17 ?v2))) (=> (= (f13 (f14 ?v0) ?v1) f1) (=> (= (f25 f18 ?v2) f1) (= (f25 (f15 ?v_0 ?v0) (f15 ?v_0 ?v1)) f1))))))
(assert (forall ((?v0 S3) (?v1 S3) (?v2 S3)) (let ((?v_0 (f20 f21 ?v2))) (=> (= (f13 (f14 ?v0) ?v1) f1) (=> (= (f13 (f14 f22) ?v2) f1) (= (f13 (f14 (f19 ?v_0 ?v0)) (f19 ?v_0 ?v1)) f1))))))
(assert (forall ((?v0 S10) (?v1 S3) (?v2 S3)) (let ((?v_0 (f16 f17 ?v0))) (=> (= (f25 f18 ?v0) f1) (=> (= (f25 (f15 ?v_0 ?v1) (f15 ?v_0 ?v2)) f1) (= (f13 (f14 ?v1) ?v2) f1))))))
(assert (forall ((?v0 S3) (?v1 S3) (?v2 S3)) (let ((?v_0 (f20 f21 ?v0))) (=> (= (f13 (f14 f22) ?v0) f1) (=> (= (f13 (f14 (f19 ?v_0 ?v1)) (f19 ?v_0 ?v2)) f1) (= (f13 (f14 ?v1) ?v2) f1))))))
(assert (forall ((?v0 S10) (?v1 S3) (?v2 S3)) (let ((?v_0 (f16 f17 ?v0))) (=> (= (f25 f18 ?v0) f1) (= (= (f25 (f15 ?v_0 ?v1) (f15 ?v_0 ?v2)) f1) (= (f13 (f14 ?v1) ?v2) f1))))))
(assert (forall ((?v0 S3) (?v1 S3) (?v2 S3)) (let ((?v_0 (f20 f21 ?v0))) (=> (= (f13 (f14 f22) ?v0) f1) (= (= (f13 (f14 (f19 ?v_0 ?v1)) (f19 ?v_0 ?v2)) f1) (= (f13 (f14 ?v1) ?v2) f1))))))
(assert (forall ((?v0 S3)) (= (f3 (f4 f5 f24) ?v0) (ite (= ?v0 f23) f9 f24))))
(assert (forall ((?v0 S3)) (= (f15 (f16 f17 f26) ?v0) (ite (= ?v0 f23) f18 f26))))
(assert (forall ((?v0 S3)) (= (f19 (f20 f21 f23) ?v0) (ite (= ?v0 f23) f22 f23))))
(assert (forall ((?v0 S10) (?v1 S3) (?v2 S3)) (let ((?v_0 (f16 f17 ?v0))) (=> (= (f25 f18 ?v0) f1) (= (= (f15 ?v_0 ?v1) (f15 ?v_0 ?v2)) (= ?v1 ?v2))))))
(assert (forall ((?v0 S3) (?v1 S3) (?v2 S3)) (let ((?v_0 (f20 f21 ?v0))) (=> (= (f13 (f14 f22) ?v0) f1) (= (= (f19 ?v_0 ?v1) (f19 ?v_0 ?v2)) (= ?v1 ?v2))))))
(assert (forall ((?v0 S4) (?v1 S4)) (=> (not (= ?v0 f24)) (= (= (f6 (f7 f8 ?v1) ?v0) f9) (= ?v1 ?v0)))))
(assert (forall ((?v0 S3)) (=> (= (f13 (f14 ?v0) f23) f1) false)))
(assert (forall ((?v0 S3)) (not (= (f13 (f14 ?v0) f23) f1))))
(assert (forall ((?v0 S3) (?v1 S3) (?v2 S14)) (let ((?v_0 (= (f13 (f27 ?v2 ?v1) ?v0) f1))) (=> (=> (= (f13 (f14 ?v0) ?v1) f1) ?v_0) (=> (=> (= ?v0 ?v1) ?v_0) (=> (=> (= (f13 (f14 ?v1) ?v0) f1) ?v_0) ?v_0))))))
(assert (forall ((?v0 S3) (?v1 S3)) (=> (= (f13 (f14 ?v0) ?v1) f1) (not (= ?v0 ?v1)))))
(assert (forall ((?v0 S3) (?v1 S3)) (=> (= (f13 (f14 ?v0) ?v1) f1) (not (= ?v1 ?v0)))))
(assert (forall ((?v0 S3)) (=> (= (f13 (f14 ?v0) ?v0) f1) false)))
(assert (forall ((?v0 S3) (?v1 S3)) (=> (not (= ?v0 ?v1)) (=> (=> (= (f13 (f14 ?v0) ?v1) f1) false) (=> (=> (= (f13 (f14 ?v1) ?v0) f1) false) false)))))
(assert (forall ((?v0 S3) (?v1 S3)) (= (not (= ?v0 ?v1)) (or (= (f13 (f14 ?v0) ?v1) f1) (= (f13 (f14 ?v1) ?v0) f1)))))
(assert (forall ((?v0 S3)) (not (= (f13 (f14 ?v0) ?v0) f1))))
(assert (forall ((?v0 S3)) (=> (=> (= ?v0 f23) false) (= (f13 (f14 f23) ?v0) f1))))
(assert (forall ((?v0 S3) (?v1 S3)) (=> (= (f13 (f14 ?v0) ?v1) f1) (not (= ?v1 f23)))))
(assert (forall ((?v0 S3)) (= (= (f13 (f14 ?v0) f23) f1) false)))
(assert (forall ((?v0 S3)) (= (not (= ?v0 f23)) (= (f13 (f14 f23) ?v0) f1))))
(assert (forall ((?v0 S3) (?v1 S3)) (let ((?v_0 (f14 f23))) (= (= (f13 ?v_0 (f19 (f20 f21 ?v0) ?v1)) f1) (or (= ?v1 f23) (= (f13 ?v_0 ?v0) f1))))))
(assert (forall ((?v0 S4)) (= (f6 (f7 f8 f24) ?v0) f24)))
(assert (forall ((?v0 S3) (?v1 S3) (?v2 S3)) (let ((?v_0 (f20 f28 ?v0))) (=> (= (f13 (f14 f23) ?v0) f1) (= (f3 (f4 f5 (f3 f10 (f19 ?v_0 ?v1))) (f19 ?v_0 ?v2)) (f3 (f4 f5 (f3 f10 ?v1)) ?v2))))))
(assert (forall ((?v0 S10) (?v1 S10) (?v2 S3)) (=> (= (f25 ?v0 ?v1) f1) (=> (= (f29 f26 ?v0) f1) (=> (= (f13 (f14 f23) ?v2) f1) (= (f25 (f15 (f16 f17 ?v0) ?v2) (f15 (f16 f17 ?v1) ?v2)) f1))))))
(assert (forall ((?v0 S3) (?v1 S3) (?v2 S3)) (=> (= (f13 (f14 ?v0) ?v1) f1) (=> (= (f30 f23 ?v0) f1) (=> (= (f13 (f14 f23) ?v2) f1) (= (f13 (f14 (f19 (f20 f21 ?v0) ?v2)) (f19 (f20 f21 ?v1) ?v2)) f1))))))
(check-sat)
(exit)
